Normalized Data/p10_3070_tsplib0_normalized_splitx10_0.vrp
NAME:p10_3070_tsplib0_NORMALIZED_splitx10_
BEST_KNOWN: 0
COMMENT: 0
DIMENSION: 1032
CAPACITY: 1000
EDGE_WEIGHT_FORMAT: FUNCTION
EDGE_WEIGHT_TYPE: EXACT_2D
NODE_COORD_SECTION
1 0.00000 0.00000
2 -13 -13
3 -13 -13
4 -13 -13
5 -13 -13
6 -13 -13
7 -13 -13
8 -13 -13
9 1 -9
10 1 -9
11 1 -9
12 -14 10
13 -14 10
14 -14 10
15 -14 10
16 -14 10
17 -14 10
18 -14 10
19 10 0
20 10 0
21 10 0
22 10 0
23 10 0
24 20 -15
25 20 -15
26 20 -15
27 20 -15
28 20 -15
29 -2 -1
30 -2 -1
31 -2 -1
32 -2 -1
33 -2 -1
34 -2 -1
35 -2 -1
36 15 15
37 15 15
38 15 15
39 15 15
40 15 15
41 15 15
42 15 15
43 20 10
44 20 10
45 20 10
46 20 10
47 20 10
48 20 10
49 -9 24
50 -9 24
51 -9 24
52 -9 24
53 -9 24
54 -9 24
55 5 31
56 5 31
57 5 31
58 20 30
59 20 30
60 20 30
61 20 30
62 20 30
63 0 16
64 0 16
65 0 16
66 27 0
67 27 0
68 27 0
69 27 0
70 27 0
71 27 0
72 27 22
73 27 22
74 27 22
75 27 -11
76 27 -11
77 27 -11
78 27 -11
79 27 -11
80 27 -11
81 27 -11
82 -14 1
83 -14 1
84 -14 1
85 -2 9
86 -2 9
87 -2 9
88 -2 9
89 -2 9
90 -26 21
91 -26 21
92 -26 21
93 27 13
94 27 13
95 27 13
96 27 13
97 27 13
98 27 13
99 27 13
100 31 -21
101 31 -21
102 31 -21
103 31 -21
104 9 -22
105 9 -22
106 9 -22
107 9 -22
108 9 -22
109 9 -22
110 -9 -22
111 -9 -22
112 -9 -22
113 -9 -22
114 -24 -7
115 -24 -7
116 -24 -7
117 -24 -7
118 -24 -7
119 -28 8
120 -28 8
121 -28 8
122 -28 8
123 -28 8
124 -28 8
125 -18 29
126 -18 29
127 -18 29
128 -18 29
129 6 11
130 6 11
131 6 11
132 6 11
133 6 11
134 6 11
135 6 11
136 6 11
137 20 -1
138 20 -1
139 20 -1
140 0 -19
141 0 -19
142 0 -19
143 0 -19
144 17 -9
145 17 -9
146 17 -9
147 17 -9
148 8 -9
149 8 -9
150 8 -9
151 8 -9
152 8 -9
153 8 -9
154 -4 41
155 -4 41
156 -4 41
157 -4 41
158 -4 41
159 -4 41
160 -4 41
161 -13 18
162 -13 18
163 -13 18
164 -13 18
165 -13 18
166 -9 -6
167 -9 -6
168 -9 -6
169 -9 -6
170 -9 -6
171 -9 -6
172 15 5
173 15 5
174 15 5
175 15 5
176 15 5
177 15 5
178 20 15
179 20 15
180 20 15
181 20 15
182 20 15
183 20 15
184 19 -25
185 19 -25
186 19 -25
187 19 -25
188 19 -25
189 19 -25
190 19 -25
191 25 -20
192 25 -20
193 25 -20
194 25 -20
195 12 31
196 12 31
197 12 31
198 12 31
199 12 31
200 12 31
201 12 31
202 -5 25
203 -5 25
204 -5 25
205 -5 25
206 -5 25
207 -5 25
208 -5 25
209 -5 15
210 -5 15
211 -5 15
212 -5 15
213 -5 15
214 -5 15
215 -23 -18
216 -23 -18
217 -23 -18
218 -23 -18
219 -23 -18
220 -20 -21
221 -20 -21
222 -20 -21
223 -20 -21
224 -19 -16
225 -19 -16
226 -19 -16
227 -19 -16
228 -14 13
229 -14 13
230 -14 13
231 -14 13
232 -14 13
233 15 -5
234 15 -5
235 15 -5
236 15 -5
237 16 7
238 16 7
239 16 7
240 15 -20
241 15 -20
242 15 -20
243 15 -20
244 15 -20
245 15 -20
246 15 -20
247 13 -14
248 13 -14
249 13 -14
250 13 -14
251 13 -14
252 -23 3
253 -23 3
254 -23 3
255 -23 3
256 -23 3
257 -23 3
258 2 17
259 2 17
260 2 17
261 2 17
262 2 17
263 2 17
264 2 17
265 14 14
266 14 14
267 14 14
268 14 14
269 14 14
270 17 29
271 17 29
272 17 29
273 17 29
274 17 29
275 -15 -9
276 -15 -9
277 -15 -9
278 -15 -9
279 -15 -9
280 5 -5
281 5 -5
282 5 -5
283 5 -5
284 5 -5
285 -14 12
286 -14 12
287 -14 12
288 -14 12
289 -14 12
290 -14 12
291 -14 12
292 -14 12
293 -18 28
294 -18 28
295 -18 28
296 -18 28
297 -18 28
298 -18 28
299 -18 28
300 -18 28
301 -4 27
302 -4 27
303 -4 27
304 -4 27
305 17 -2
306 17 -2
307 17 -2
308 17 -2
309 17 -2
310 17 -2
311 17 -2
312 16 -14
313 16 -14
314 16 -14
315 16 -14
316 7 6
317 7 6
318 7 6
319 7 6
320 7 6
321 -4 -3
322 -4 -3
323 -4 -3
324 -4 -3
325 -30 -10
326 -30 -10
327 -23 7
328 -23 7
329 -23 7
330 -23 7
331 1 -19
332 1 -19
333 1 -19
334 17 6
335 17 6
336 17 6
337 17 6
338 17 6
339 17 6
340 -8 -12
341 -8 -12
342 -8 -12
343 -8 -12
344 -8 -12
345 -8 -12
346 -8 -12
347 -18 -2
348 -18 -2
349 -18 -2
350 -18 -2
351 -18 -2
352 -18 -2
353 -18 -2
354 -22 -22
355 -22 -22
356 -22 -22
357 -22 -22
358 -22 -22
359 22 23
360 22 23
361 22 23
362 22 23
363 22 23
364 22 23
365 22 23
366 22 23
367 27 7
368 27 7
369 27 7
370 27 7
371 27 7
372 27 7
373 27 7
374 7 22
375 7 22
376 7 22
377 7 22
378 7 22
379 7 22
380 -19 22
381 -19 22
382 -19 22
383 -19 22
384 -27 17
385 -27 17
386 -27 17
387 -27 17
388 -27 17
389 -27 17
390 -28 3
391 -28 3
392 -28 3
393 -28 3
394 -28 3
395 -28 3
396 -28 3
397 -28 3
398 -8 33
399 -8 33
400 -8 33
401 -8 33
402 -5 13
403 -5 13
404 -5 13
405 -5 13
406 -5 13
407 8 32
408 8 32
409 8 32
410 8 32
411 8 32
412 8 32
413 23 13
414 23 13
415 23 13
416 23 13
417 23 13
418 23 13
419 23 13
420 23 -8
421 23 -8
422 23 -8
423 23 -8
424 23 -8
425 2 34
426 2 34
427 2 34
428 2 34
429 2 34
430 3 11
431 3 11
432 3 11
433 3 11
434 3 11
435 11 -25
436 11 -25
437 11 -25
438 26 -2
439 26 -2
440 26 -2
441 26 -2
442 26 -2
443 26 -2
444 27 28
445 27 28
446 27 28
447 27 28
448 28 34
449 28 34
450 28 34
451 28 34
452 28 34
453 28 34
454 28 34
455 28 34
456 -3 -13
457 -3 -13
458 -3 -13
459 -3 -13
460 10 0
461 10 0
462 10 0
463 10 0
464 10 0
465 10 0
466 10 0
467 10 0
468 24 -20
469 24 -20
470 24 -20
471 24 -20
472 24 -20
473 -30 -29
474 -30 -29
475 -30 -29
476 -30 -29
477 -30 -29
478 -30 -29
479 -30 -29
480 -25 -18
481 -25 -18
482 -25 -18
483 -25 -18
484 -25 -18
485 -25 -18
486 -14 -25
487 -14 -25
488 -14 -25
489 -14 -25
490 -14 -25
491 -30 29
492 -30 29
493 -30 29
494 -30 29
495 -30 29
496 -30 29
497 -5 -20
498 -5 -20
499 -5 -20
500 -5 -20
501 -5 -20
502 4 -25
503 4 -25
504 4 -25
505 4 -25
506 4 -25
507 4 -25
508 -3 4
509 -3 4
510 -3 4
511 -3 4
512 -3 4
513 -3 4
514 -10 -3
515 -10 -3
516 -10 -3
517 -10 -3
518 -10 20
519 -10 20
520 -10 20
521 13 -7
522 13 -7
523 13 -7
524 13 -7
525 13 -7
526 21 2
527 21 2
528 21 2
529 6 14
530 6 14
531 6 14
532 6 14
533 6 14
534 6 14
535 0 -18
536 0 -18
537 0 -18
538 0 -18
539 0 -18
540 20 10
541 20 10
542 20 10
543 20 10
544 20 -15
545 20 -15
546 20 -15
547 -20 -5
548 -20 -5
549 -20 -5
550 -20 -5
551 -20 -5
552 -20 -5
553 -20 -5
554 -10 -5
555 -10 -5
556 -10 -5
557 -10 -5
558 -10 -5
559 -15 15
560 -15 15
561 -15 15
562 -15 15
563 -15 15
564 -15 15
565 -25 8
566 -25 8
567 -25 8
568 -25 8
569 -25 8
570 20 25
571 20 25
572 20 25
573 20 25
574 20 25
575 -5 25
576 -5 25
577 -5 25
578 -5 25
579 -15 30
580 -15 30
581 -15 30
582 -15 30
583 -15 30
584 15 0
585 15 0
586 15 0
587 15 0
588 15 0
589 -5 -10
590 -5 -10
591 -5 -10
592 -5 -10
593 -5 -10
594 -20 -25
595 -20 -25
596 -5 -30
597 -5 -30
598 -5 -30
599 -5 -30
600 -25 -15
601 -25 -15
602 -25 -15
603 -25 -15
604 -25 -15
605 -25 -15
606 -30 -5
607 -30 -5
608 -30 -5
609 -15 5
610 -15 5
611 -15 5
612 -15 5
613 -15 5
614 -15 5
615 -20 25
616 -20 25
617 -20 25
618 -20 25
619 -20 25
620 -20 25
621 10 30
622 10 30
623 10 30
624 10 -15
625 10 -15
626 10 -15
627 10 -15
628 10 -15
629 10 -15
630 10 -25
631 10 -25
632 10 -25
633 10 -25
634 10 -25
635 20 -30
636 20 -30
637 20 -30
638 20 -30
639 20 -30
640 20 -30
641 20 -30
642 30 0
643 30 0
644 30 0
645 30 0
646 30 -15
647 30 -15
648 30 -15
649 10 -5
650 10 -5
651 10 -5
652 10 -5
653 10 -5
654 0 5
655 0 5
656 0 5
657 0 5
658 6 2
659 6 2
660 6 2
661 6 2
662 6 2
663 6 2
664 6 2
665 29 7
666 29 7
667 29 7
668 29 7
669 29 7
670 29 7
671 29 7
672 5 25
673 5 25
674 5 25
675 5 25
676 5 25
677 5 25
678 -4 17
679 -4 17
680 -4 17
681 -4 17
682 -4 17
683 -4 17
684 0 34
685 0 34
686 0 34
687 0 34
688 18 17
689 18 17
690 18 17
691 18 17
692 18 17
693 18 17
694 18 17
695 30 20
696 30 20
697 30 20
698 30 20
699 28 30
700 28 30
701 28 30
702 28 30
703 28 30
704 28 30
705 28 30
706 28 30
707 -33 25
708 -33 25
709 -33 25
710 -33 25
711 -15 -15
712 -15 -15
713 -15 -15
714 -15 -15
715 -15 -15
716 -15 -15
717 -30 -30
718 -30 -30
719 -30 -30
720 -30 -30
721 -30 -30
722 25 -23
723 25 -23
724 25 -23
725 25 -23
726 5 -10
727 5 -10
728 5 -10
729 5 -10
730 7 -28
731 7 -28
732 7 -28
733 7 -28
734 7 -28
735 7 -28
736 -11 -23
737 -11 -23
738 -11 -23
739 -11 -23
740 -11 -23
741 -12 -32
742 -12 -32
743 -12 -32
744 -12 -32
745 -12 -32
746 -12 -32
747 -12 -32
748 -24 -21
749 -24 -21
750 -24 -21
751 -24 -21
752 -24 -21
753 -24 -21
754 -29 3
755 -29 3
756 -29 3
757 -29 3
758 -29 3
759 -33 13
760 -33 13
761 -33 13
762 -33 13
763 -33 13
764 -27 21
765 -27 21
766 -27 21
767 -27 21
768 -27 21
769 -27 21
770 -22 17
771 -22 17
772 -22 17
773 -22 17
774 -22 17
775 -22 17
776 -22 17
777 -22 17
778 -29 33
779 -29 33
780 -29 33
781 -29 33
782 -29 33
783 -29 33
784 12 12
785 12 12
786 12 12
787 12 12
788 12 12
789 14 23
790 14 23
791 14 23
792 14 23
793 14 23
794 14 23
795 -8 8
796 -8 8
797 -8 8
798 -8 8
799 -8 8
800 -8 8
801 -8 8
802 2 -4
803 2 -4
804 2 -4
805 2 -4
806 2 -4
807 2 -4
808 22 -6
809 22 -6
810 22 -6
811 22 -6
812 22 -6
813 22 -6
814 22 -6
815 22 -6
816 28 -12
817 28 -12
818 28 -12
819 28 -12
820 28 -12
821 18 -23
822 18 -23
823 18 -23
824 18 -23
825 18 -23
826 -3 -23
827 -3 -23
828 -3 -23
829 1 -9
830 1 -9
831 1 -9
832 1 -9
833 1 -9
834 1 -9
835 -14 -11
836 -14 -11
837 -14 -11
838 -14 -11
839 -14 -11
840 -14 -11
841 -18 -1
842 -18 -1
843 -18 -1
844 -18 -1
845 -18 -1
846 -18 -1
847 -23 -11
848 -23 -11
849 -23 -11
850 -23 -11
851 -11 23
852 -11 23
853 -8 34
854 -8 34
855 -8 34
856 -20 42
857 -20 42
858 -20 42
859 27 42
860 27 42
861 27 42
862 14 38
863 14 38
864 32 -30
865 32 -30
866 32 -30
867 21 4
868 21 4
869 21 4
870 21 4
871 21 4
872 21 4
873 21 4
874 21 4
875 2 12
876 2 12
877 2 12
878 2 12
879 2 12
880 2 12
881 2 12
882 2 21
883 2 21
884 2 21
885 22 33
886 22 33
887 12 -19
888 12 -19
889 12 -19
890 9 -18
891 9 -18
892 9 -18
893 9 -18
894 9 -18
895 9 -18
896 11 -22
897 11 -22
898 11 -22
899 11 -22
900 11 -22
901 11 -22
902 11 -22
903 14 -24
904 14 -24
905 14 -24
906 14 -24
907 14 -24
908 14 -24
909 14 7
910 14 7
911 14 7
912 14 7
913 14 7
914 14 7
915 14 7
916 18 8
917 18 8
918 18 8
919 18 8
920 18 8
921 26 17
922 26 17
923 26 17
924 26 17
925 22 13
926 22 13
927 22 13
928 22 13
929 21 2
930 21 2
931 21 2
932 21 2
933 21 2
934 21 2
935 20 19
936 20 19
937 20 19
938 20 19
939 20 19
940 20 19
941 -20 12
942 -20 12
943 -20 12
944 -20 12
945 -20 12
946 -21 2
947 -21 2
948 -21 2
949 -21 2
950 -24 -4
951 -24 -4
952 -24 -4
953 -24 -4
954 -24 -4
955 -24 -4
956 -19 -13
957 -19 -13
958 -31 -17
959 -31 -17
960 -7 -17
961 -7 -17
962 -7 -17
963 -9 17
964 -9 17
965 -9 17
966 -9 17
967 -9 17
968 -9 17
969 -9 0
970 -9 0
971 -9 0
972 -9 0
973 -9 0
974 -9 0
975 -4 32
976 -4 32
977 -4 32
978 -4 32
979 -4 32
980 -4 32
981 -20 -16
982 -20 -16
983 -20 -16
984 -20 -16
985 -13 -13
986 -13 -13
987 -13 -13
988 -13 -13
989 -13 -13
990 -13 -13
991 -13 -13
992 -17 -11
993 -17 -11
994 -17 -11
995 -17 -11
996 -17 -11
997 -9 -8
998 -9 -8
999 -9 -8
1000 -9 -8
1001 -9 -8
1002 -10 -11
1003 -10 -11
1004 -10 -11
1005 -10 -11
1006 -13 -8
1007 -13 -8
1008 -13 -8
1009 -13 -8
1010 -10 -14
1011 -10 -14
1012 -10 -14
1013 -10 -14
1014 -10 -14
1015 -10 -14
1016 -16 -14
1017 -16 -14
1018 -16 -14
1019 -16 -14
1020 -16 -14
1021 -16 -14
1022 -16 -14
1023 -15 -9
1024 -15 -9
1025 -15 -9
1026 -15 -9
1027 -15 -9
1028 -15 -9
1029 -17 -17
1030 -17 -17
1031 -17 -17
1032 -17 -17
DEMAND_SECTION
1 0
2 200
3 200
4 200
5 10
6 10
7 10
8 10
9 200
10 200
11 50
12 200
13 100
14 50
15 10
16 10
17 10
18 10
19 200
20 200
21 100
22 10
23 10
24 200
25 200
26 200
27 50
28 10
29 200
30 200
31 200
32 10
33 10
34 10
35 10
36 200
37 200
38 50
39 10
40 10
41 10
42 10
43 200
44 100
45 10
46 10
47 10
48 10
49 200
50 100
51 50
52 10
53 10
54 10
55 200
56 100
57 10
58 200
59 200
60 200
61 10
62 10
63 200
64 200
65 50
66 200
67 200
68 50
69 10
70 10
71 10
72 200
73 200
74 100
75 200
76 200
77 100
78 50
79 10
80 10
81 10
82 200
83 200
84 10
85 200
86 100
87 10
88 10
89 10
90 200
91 200
92 100
93 200
94 200
95 200
96 10
97 10
98 10
99 10
100 200
101 200
102 100
103 10
104 200
105 100
106 10
107 10
108 10
109 10
110 200
111 200
112 100
113 50
114 200
115 200
116 100
117 50
118 10
119 200
120 200
121 100
122 10
123 10
124 10
125 200
126 200
127 200
128 10
129 200
130 200
131 100
132 50
133 10
134 10
135 10
136 10
137 200
138 100
139 10
140 200
141 200
142 200
143 10
144 200
145 100
146 50
147 10
148 200
149 100
150 10
151 10
152 10
153 10
154 200
155 200
156 200
157 10
158 10
159 10
160 10
161 200
162 200
163 200
164 10
165 10
166 200
167 200
168 200
169 10
170 10
171 10
172 200
173 100
174 50
175 10
176 10
177 10
178 200
179 200
180 200
181 10
182 10
183 10
184 200
185 200
186 50
187 10
188 10
189 10
190 10
191 200
192 200
193 200
194 10
195 200
196 200
197 50
198 10
199 10
200 10
201 10
202 200
203 200
204 50
205 10
206 10
207 10
208 10
209 200
210 200
211 200
212 10
213 10
214 10
215 200
216 100
217 50
218 10
219 10
220 200
221 100
222 10
223 10
224 200
225 200
226 100
227 50
228 200
229 200
230 100
231 50
232 10
233 200
234 200
235 200
236 50
237 200
238 200
239 10
240 200
241 200
242 50
243 10
244 10
245 10
246 10
247 200
248 200
249 50
250 10
251 10
252 200
253 200
254 200
255 10
256 10
257 10
258 200
259 200
260 100
261 10
262 10
263 10
264 10
265 200
266 200
267 100
268 50
269 10
270 200
271 200
272 100
273 50
274 10
275 200
276 100
277 10
278 10
279 10
280 200
281 200
282 200
283 50
284 10
285 200
286 200
287 100
288 50
289 10
290 10
291 10
292 10
293 200
294 200
295 100
296 50
297 10
298 10
299 10
300 10
301 200
302 200
303 10
304 10
305 200
306 200
307 100
308 50
309 10
310 10
311 10
312 200
313 200
314 50
315 10
316 200
317 200
318 10
319 10
320 10
321 200
322 200
323 200
324 50
325 200
326 200
327 200
328 200
329 10
330 10
331 200
332 200
333 10
334 200
335 200
336 10
337 10
338 10
339 10
340 200
341 200
342 50
343 10
344 10
345 10
346 10
347 200
348 200
349 200
350 10
351 10
352 10
353 10
354 200
355 100
356 10
357 10
358 10
359 200
360 200
361 200
362 50
363 10
364 10
365 10
366 10
367 200
368 200
369 200
370 10
371 10
372 10
373 10
374 200
375 200
376 200
377 50
378 10
379 10
380 200
381 200
382 200
383 50
384 200
385 200
386 200
387 10
388 10
389 10
390 200
391 200
392 200
393 50
394 10
395 10
396 10
397 10
398 200
399 100
400 10
401 10
402 200
403 200
404 10
405 10
406 10
407 200
408 200
409 100
410 10
411 10
412 10
413 200
414 200
415 100
416 50
417 10
418 10
419 10
420 200
421 200
422 100
423 10
424 10
425 200
426 200
427 200
428 10
429 10
430 200
431 200
432 100
433 50
434 10
435 200
436 200
437 10
438 200
439 200
440 100
441 50
442 10
443 10
444 200
445 200
446 100
447 50
448 200
449 200
450 200
451 50
452 10
453 10
454 10
455 10
456 200
457 200
458 200
459 10
460 200
461 200
462 200
463 50
464 10
465 10
466 10
467 10
468 200
469 200
470 200
471 10
472 10
473 200
474 200
475 200
476 10
477 10
478 10
479 10
480 200
481 100
482 10
483 10
484 10
485 10
486 200
487 200
488 200
489 10
490 10
491 200
492 200
493 100
494 10
495 10
496 10
497 200
498 100
499 50
500 10
501 10
502 200
503 200
504 200
505 50
506 10
507 10
508 200
509 200
510 100
511 50
512 10
513 10
514 200
515 200
516 200
517 10
518 200
519 200
520 200
521 200
522 200
523 50
524 10
525 10
526 200
527 200
528 200
529 200
530 100
531 10
532 10
533 10
534 10
535 200
536 200
537 100
538 50
539 10
540 200
541 200
542 200
543 10
544 200
545 200
546 200
547 200
548 200
549 200
550 50
551 10
552 10
553 10
554 200
555 200
556 50
557 10
558 10
559 200
560 100
561 50
562 10
563 10
564 10
565 200
566 100
567 10
568 10
569 10
570 200
571 200
572 100
573 10
574 10
575 200
576 200
577 10
578 10
579 200
580 200
581 200
582 50
583 10
584 200
585 200
586 200
587 50
588 10
589 200
590 200
591 100
592 50
593 10
594 200
595 100
596 200
597 200
598 10
599 10
600 200
601 200
602 100
603 50
604 10
605 10
606 200
607 200
608 50
609 200
610 200
611 10
612 10
613 10
614 10
615 200
616 200
617 200
618 10
619 10
620 10
621 200
622 200
623 200
624 200
625 200
626 200
627 50
628 10
629 10
630 200
631 200
632 10
633 10
634 10
635 200
636 200
637 50
638 10
639 10
640 10
641 10
642 200
643 100
644 10
645 10
646 200
647 200
648 50
649 200
650 200
651 100
652 50
653 10
654 200
655 200
656 100
657 10
658 200
659 200
660 200
661 50
662 10
663 10
664 10
665 200
666 200
667 50
668 10
669 10
670 10
671 10
672 200
673 200
674 100
675 50
676 10
677 10
678 200
679 200
680 50
681 10
682 10
683 10
684 200
685 200
686 100
687 50
688 200
689 200
690 100
691 10
692 10
693 10
694 10
695 200
696 200
697 200
698 10
699 200
700 200
701 100
702 50
703 10
704 10
705 10
706 10
707 200
708 200
709 200
710 10
711 200
712 200
713 100
714 10
715 10
716 10
717 200
718 200
719 100
720 10
721 10
722 200
723 200
724 10
725 10
726 200
727 200
728 10
729 10
730 200
731 200
732 200
733 50
734 10
735 10
736 200
737 200
738 100
739 10
740 10
741 200
742 200
743 100
744 10
745 10
746 10
747 10
748 200
749 200
750 100
751 10
752 10
753 10
754 200
755 100
756 50
757 10
758 10
759 200
760 200
761 100
762 50
763 10
764 200
765 200
766 100
767 50
768 10
769 10
770 200
771 200
772 200
773 50
774 10
775 10
776 10
777 10
778 200
779 100
780 50
781 10
782 10
783 10
784 200
785 200
786 100
787 10
788 10
789 200
790 200
791 10
792 10
793 10
794 10
795 200
796 200
797 50
798 10
799 10
800 10
801 10
802 200
803 100
804 10
805 10
806 10
807 10
808 200
809 200
810 200
811 50
812 10
813 10
814 10
815 10
816 200
817 200
818 50
819 10
820 10
821 200
822 200
823 50
824 10
825 10
826 200
827 100
828 10
829 200
830 200
831 100
832 50
833 10
834 10
835 200
836 100
837 10
838 10
839 10
840 10
841 200
842 100
843 50
844 10
845 10
846 10
847 200
848 200
849 100
850 10
851 200
852 100
853 200
854 100
855 50
856 200
857 100
858 10
859 200
860 100
861 50
862 200
863 100
864 200
865 200
866 200
867 200
868 200
869 200
870 50
871 10
872 10
873 10
874 10
875 200
876 100
877 50
878 10
879 10
880 10
881 10
882 200
883 100
884 10
885 200
886 100
887 200
888 200
889 200
890 200
891 200
892 50
893 10
894 10
895 10
896 200
897 200
898 100
899 10
900 10
901 10
902 10
903 200
904 100
905 50
906 10
907 10
908 10
909 200
910 200
911 100
912 10
913 10
914 10
915 10
916 200
917 200
918 50
919 10
920 10
921 200
922 200
923 100
924 50
925 200
926 200
927 100
928 10
929 200
930 200
931 50
932 10
933 10
934 10
935 200
936 200
937 200
938 10
939 10
940 10
941 200
942 200
943 100
944 50
945 10
946 200
947 200
948 10
949 10
950 200
951 200
952 100
953 10
954 10
955 10
956 200
957 200
958 200
959 200
960 200
961 200
962 200
963 200
964 200
965 200
966 10
967 10
968 10
969 200
970 100
971 50
972 10
973 10
974 10
975 200
976 200
977 50
978 10
979 10
980 10
981 200
982 200
983 50
984 10
985 200
986 200
987 50
988 10
989 10
990 10
991 10
992 200
993 200
994 200
995 50
996 10
997 200
998 200
999 200
1000 50
1001 10
1002 200
1003 100
1004 50
1005 10
1006 200
1007 100
1008 10
1009 10
1010 200
1011 200
1012 100
1013 10
1014 10
1015 10
1016 200
1017 200
1018 200
1019 10
1020 10
1021 10
1022 10
1023 200
1024 200
1025 100
1026 50
1027 10
1028 10
1029 200
1030 200
1031 10
1032 10
DEPOT_SECTION
1
-1
EOF