Normalized Data/p10_3070_tsplib0_normalized_splitx10_0.sol
1031 -5 990 989 715 712 1029 1028 1016 1021 1019 1020 1005 -8 9 828 831 829 10 830 -14 17 11 15 16 12 13 286 287 291 288 289 284 290 285 -19 21 466 235 234 232 233 -23 192 467 468 469 -24 545 544 25 543 -27 26 100 99 102 101 721 724 722 723 -30 28 29 654 653 -32 33 34 31 557 556 555 166 170 997 998 1000 999 996 -40 39 41 38 358 362 363 444 446 445 705 699 703 702 704 700 701 -45 541 42 540 43 539 542 919 918 661 660 -47 46 44 94 96 97 95 92 98 667 669 670 664 665 668 666 369 371 372 370 -54 55 56 428 425 426 427 424 -58 57 269 270 272 271 273 790 792 793 791 -60 61 59 884 885 450 453 447 449 -67 66 68 70 69 65 641 643 644 642 136 -72 73 71 921 922 920 -76 79 645 647 646 193 190 191 470 471 -82 83 81 608 610 609 612 611 613 -84 874 876 880 877 878 879 430 431 429 -88 87 85 86 398 397 400 399 852 853 854 850 -89 91 90 765 763 764 -93 694 696 697 695 923 926 927 -106 105 108 104 107 103 896 898 897 895 901 900 899 894 893 891 892 728 727 -111 112 736 738 739 486 488 485 487 489 -115 324 325 957 958 601 -122 123 121 119 118 753 757 756 755 396 391 392 395 948 947 -126 127 125 124 296 299 297 295 294 293 298 -131 134 130 133 128 135 129 132 530 528 529 432 433 -146 145 143 423 419 421 420 422 809 813 814 -148 150 147 624 628 626 627 625 623 -149 152 151 144 865 864 863 822 240 242 -162 161 160 381 380 -169 168 1007 1008 1006 1023 995 994 993 992 991 -172 173 176 237 238 236 909 913 912 908 914 -179 177 181 180 182 178 687 690 267 785 -183 187 188 185 186 184 189 636 640 635 639 638 637 634 -194 198 199 197 200 195 196 861 862 620 -204 205 206 207 575 203 201 577 202 574 576 212 213 211 404 403 405 -208 209 210 401 402 -215 216 218 484 479 482 481 480 483 602 600 599 603 604 -219 222 221 717 718 719 720 716 476 474 478 477 356 1030 1031 -220 354 353 357 355 748 749 752 217 214 983 982 -227 228 229 231 230 562 558 559 563 561 560 -239 241 244 245 243 824 823 820 821 903 902 -247 246 249 250 248 311 313 314 312 524 523 522 -251 252 253 946 945 -254 255 256 393 390 394 389 754 605 607 606 -262 261 259 882 881 883 63 64 62 656 655 -266 268 35 36 37 265 264 786 787 -275 1022 548 549 552 546 547 550 349 350 352 -276 1025 956 955 849 846 848 847 -282 283 281 280 279 805 806 803 801 804 802 -292 580 581 578 579 582 851 965 967 966 -302 303 300 301 48 52 49 53 51 50 964 -309 308 307 304 306 310 305 583 587 584 -316 315 659 657 658 -317 318 319 693 692 688 689 691 937 936 938 939 935 934 -320 165 167 553 554 -322 321 323 588 589 590 591 -328 327 329 326 941 942 940 943 944 -331 332 506 504 505 732 731 729 734 730 733 -336 338 334 335 337 333 917 915 916 910 911 -343 340 342 339 345 1009 1014 1011 1010 1012 1013 -351 347 346 348 844 843 840 845 841 842 -365 361 364 359 360 569 570 573 572 571 -367 366 368 866 867 -375 789 788 784 783 -378 621 622 407 410 406 408 409 411 674 675 -385 383 769 770 771 -386 388 384 387 707 708 706 709 768 766 767 774 775 772 776 773 -418 415 414 412 417 413 416 924 925 -440 437 441 438 442 439 808 807 811 -443 698 448 451 452 454 860 858 859 -456 457 455 725 726 -458 498 500 499 496 497 959 961 960 -464 462 20 459 460 461 18 463 22 465 -494 495 491 493 490 492 781 779 782 780 778 777 -502 501 503 330 534 -508 507 509 512 511 796 800 798 795 794 -510 164 163 616 615 614 619 617 618 379 382 799 797 -516 515 513 514 969 970 973 972 968 971 -519 517 518 963 962 -520 521 651 650 652 648 649 -527 928 929 526 931 137 138 586 -533 532 531 374 377 373 376 673 671 672 676 -537 535 538 536 140 142 139 141 832 833 -551 116 113 114 117 953 954 949 950 951 952 -565 564 568 567 566 120 759 761 760 762 758 -585 932 525 930 933 868 871 869 873 872 870 175 171 174 663 662 -592 341 344 593 594 472 475 473 750 747 751 -632 629 631 633 630 434 436 435 907 905 906 904 -682 680 679 677 681 678 257 258 260 263 875 -684 683 685 974 978 979 976 977 975 -686 158 159 157 154 156 153 155 857 856 855 -735 737 109 110 825 826 -743 744 741 746 745 742 740 595 598 597 596 827 -810 812 77 74 75 78 80 817 818 816 819 815 -839 835 837 834 3 6 2 7 1003 1001 -888 887 886 890 889 -981 980 224 226 223 225 4 987 -985 984 1 838 836 274 278 1024 277 1026 1027 -1002 1004 986 988 713 714 711 710 1017 1015 1018 0 





OBJ=
5512.742
BEST_KNOWN=
0.000